Maximize
  - 15 x0 + 46 x1 - 42 x2 + 0 x3 + 33 x4 - 30 x5 + 19 x6 - 20 x7 + 26 x8
   + 27 x9 + 7 x10 + 4 x11 + 49 x12 - 38 x13 + 0 x14 + 23 x15 + 0 x16
   - 31 x17 + 49 x18 - 9 x19 - 6 x20 - 31 x21 + 18 x22 + 0 x23 + 0 x24
   + 32 x25 - 17 x26 + 12 x27 + 44 x28 - 45 x29 + 24 x30 + 27 x31 - 44 x32
   + 0 x33 + 34 x34 + 45 x35 - 4 x36 - 6 x37 - 14 x38 + 48 x39 + [
   - 16 x0 * x1 + 58 x0 * x2 + 98 x0 * x3 - 88 x0 * x4 - 50 x0 * x5
   - 2 x0 * x6 - 30 x0 * x9 - 22 x0 * x10 - 40 x0 * x11 + 52 x0 * x12
   - 58 x0 * x13 - 48 x0 * x14 - 30 x0 * x15 - 8 x0 * x16 + 24 x0 * x17
   + 80 x0 * x18 + 70 x0 * x19 + 78 x0 * x20 + 32 x0 * x21 - 2 x0 * x22
   + 76 x0 * x23 - 54 x0 * x24 - 8 x0 * x25 + 68 x0 * x26 - 84 x0 * x27
   - 14 x0 * x29 + 40 x0 * x30 + 44 x0 * x31 - 14 x0 * x32 + 46 x0 * x34
   - 50 x0 * x35 + 72 x0 * x36 + 80 x0 * x37 + 32 x0 * x38 + 27 x1 ^2
   + 80 x1 * x2 - 62 x1 * x3 - 32 x1 * x4 - 66 x1 * x6 - 10 x1 * x8
   + 34 x1 * x9 + 72 x1 * x10 - 2 x1 * x11 + 42 x1 * x12 - 20 x1 * x13
   + 8 x1 * x15 - 78 x1 * x18 + 34 x1 * x19 - 12 x1 * x20 + 34 x1 * x21
   + 70 x1 * x22 - 58 x1 * x23 - 94 x1 * x24 + 92 x1 * x25 - 74 x1 * x27
   - 68 x1 * x28 + 96 x1 * x29 + 10 x1 * x30 - 32 x1 * x31 + 70 x1 * x32
   + 82 x1 * x33 - 32 x1 * x34 + 96 x1 * x35 + 12 x1 * x36 + 74 x1 * x37
   + 24 x1 * x38 + 22 x1 * x39 - 90 x2 * x4 - 82 x2 * x5 + 20 x2 * x6
   + 6 x2 * x7 - 72 x2 * x8 - 50 x2 * x9 - 16 x2 * x10 + 16 x2 * x11
   - 4 x2 * x12 + 26 x2 * x13 - 8 x2 * x14 - 78 x2 * x15 - 64 x2 * x16
   + 78 x2 * x19 + 60 x2 * x23 + 32 x2 * x24 - 14 x2 * x25 + 42 x2 * x26
   - 46 x2 * x27 + 24 x2 * x29 - 64 x2 * x30 + 10 x2 * x31 + 34 x2 * x32
   - 42 x2 * x34 + 86 x2 * x35 + 74 x2 * x37 + 40 x2 * x38 - 72 x2 * x39
   + 58 x3 * x4 - 8 x3 * x5 + 16 x3 * x6 + 68 x3 * x8 + 72 x3 * x10
   + 76 x3 * x11 + 90 x3 * x12 - 48 x3 * x13 - 70 x3 * x14 - 40 x3 * x15
   + 94 x3 * x16 + 26 x3 * x17 - 46 x3 * x18 + 64 x3 * x19 - 36 x3 * x20
   - 88 x3 * x21 + 92 x3 * x22 + 66 x3 * x23 - 76 x3 * x24 - 48 x3 * x25
   + 10 x3 * x26 + 16 x3 * x27 + 74 x3 * x28 + 76 x3 * x29 + 64 x3 * x30
   - 18 x3 * x31 + 34 x3 * x32 + 38 x3 * x34 + 86 x3 * x35 + 66 x3 * x36
   - 44 x3 * x37 + 24 x3 * x38 + 12 x3 * x39 + 18 x4 ^2 + 96 x4 * x6
   + 52 x4 * x7 - 78 x4 * x8 + 48 x4 * x9 + 92 x4 * x10 + 38 x4 * x12
   + 58 x4 * x13 + 18 x4 * x14 - 4 x4 * x16 + 4 x4 * x17 + 44 x4 * x18
   + 98 x4 * x19 + 28 x4 * x20 - 40 x4 * x21 - 28 x4 * x22 - 4 x4 * x24
   + 26 x4 * x27 + 36 x4 * x28 - 38 x4 * x29 - 34 x4 * x30 + 10 x4 * x31
   - 90 x4 * x32 + 98 x4 * x33 - 82 x4 * x34 + 34 x4 * x35 - 66 x4 * x36
   + 4 x4 * x37 - 40 x4 * x38 - 50 x4 * x39 - 30 x5 ^2 - 50 x5 * x7
   - 16 x5 * x8 - 80 x5 * x9 - 24 x5 * x10 - 36 x5 * x11 - 58 x5 * x12
   - 4 x5 * x13 + 78 x5 * x14 + 64 x5 * x15 - 28 x5 * x17 - 28 x5 * x18
   + 40 x5 * x19 + 14 x5 * x20 - 38 x5 * x21 - 12 x5 * x22 - 82 x5 * x23
   + 50 x5 * x24 - 42 x5 * x25 + 78 x5 * x27 - 28 x5 * x28 - 58 x5 * x29
   - 22 x5 * x31 + 40 x5 * x32 + 96 x5 * x34 + 54 x5 * x35 + 12 x5 * x36
   + 92 x5 * x37 + 86 x5 * x38 - 22 x6 ^2 + 88 x6 * x7 - 70 x6 * x8
   - 32 x6 * x9 + 96 x6 * x11 + 8 x6 * x12 - 58 x6 * x13 + 48 x6 * x14
   + 28 x6 * x15 + 14 x6 * x16 - 34 x6 * x17 - 70 x6 * x18 + 80 x6 * x19
   + 68 x6 * x20 + 54 x6 * x22 + 80 x6 * x23 - 16 x6 * x24 + 62 x6 * x25
   + 62 x6 * x26 + 26 x6 * x28 + 58 x6 * x29 - 28 x6 * x30 + 66 x6 * x31
   - 84 x6 * x32 + 72 x6 * x33 + 92 x6 * x34 - 34 x6 * x35 + 54 x6 * x36
   - 62 x6 * x37 + 2 x6 * x39 + 17 x7 ^2 + 88 x7 * x8 + 60 x7 * x9
   - 36 x7 * x10 + 68 x7 * x11 - 38 x7 * x12 - 22 x7 * x13 + 92 x7 * x14
   + 92 x7 * x15 + 32 x7 * x16 - 76 x7 * x17 - 58 x7 * x18 + 38 x7 * x19
   - 48 x7 * x21 - 26 x7 * x22 - 94 x7 * x23 + 26 x7 * x24 - 34 x7 * x25
   + 28 x7 * x26 + 36 x7 * x29 - 82 x7 * x30 + 28 x7 * x31 + 6 x7 * x35
   - 72 x7 * x36 + 68 x7 * x38 - 86 x7 * x39 - 11 x8 ^2 - 60 x8 * x9
   + 88 x8 * x10 - 88 x8 * x11 - 96 x8 * x13 + 16 x8 * x14 + 12 x8 * x15
   + 14 x8 * x17 - 16 x8 * x18 + 78 x8 * x19 - 84 x8 * x20 - 6 x8 * x23
   - 96 x8 * x25 - 54 x8 * x26 - 70 x8 * x27 - 68 x8 * x29 - 26 x8 * x30
   - 92 x8 * x31 + 2 x8 * x32 - 90 x8 * x34 + 76 x8 * x35 + 88 x8 * x36
   - 66 x8 * x37 - 42 x8 * x38 + 22 x8 * x39 + 19 x9 ^2 - 60 x9 * x11
   - 88 x9 * x13 + 96 x9 * x14 + 18 x9 * x15 + 26 x9 * x16 - 56 x9 * x17
   - 86 x9 * x18 + 38 x9 * x20 - 78 x9 * x21 - 76 x9 * x22 - 98 x9 * x23
   + 20 x9 * x24 + 80 x9 * x26 + 46 x9 * x27 - 64 x9 * x28 + 18 x9 * x29
   - 94 x9 * x30 + 24 x9 * x31 + 80 x9 * x33 - 38 x9 * x34 - 52 x9 * x35
   - 10 x9 * x37 - 36 x9 * x38 + 82 x9 * x39 - 26 x10 ^2 + 34 x10 * x13
   - 94 x10 * x15 - 36 x10 * x16 + 4 x10 * x17 + 82 x10 * x18 + 6 x10 * x19
   - 64 x10 * x20 - 66 x10 * x21 - 90 x10 * x22 - 24 x10 * x24
   - 74 x10 * x25 - 36 x10 * x26 + 38 x10 * x27 + 56 x10 * x28
   - 12 x10 * x29 + 4 x10 * x31 + 4 x10 * x33 - 66 x10 * x34 - 64 x10 * x35
   - 48 x10 * x37 - 12 x10 * x38 + 2 x10 * x39 + 6 x11 * x14 + 96 x11 * x15
   - 38 x11 * x17 - 52 x11 * x19 + 22 x11 * x20 - 74 x11 * x21
   - 56 x11 * x22 - 52 x11 * x23 - 86 x11 * x25 + 84 x11 * x26
   - 44 x11 * x28 + 88 x11 * x29 + 50 x11 * x30 + 70 x11 * x33
   + 80 x11 * x34 + 72 x11 * x35 + 14 x11 * x36 + 34 x11 * x37
   + 20 x11 * x38 - 10 x11 * x39 - 11 x12 ^2 - 62 x12 * x13 + 30 x12 * x15
   + 82 x12 * x18 - 42 x12 * x19 - 46 x12 * x22 + 72 x12 * x23
   - 84 x12 * x25 + 94 x12 * x26 + 50 x12 * x27 - 58 x12 * x28
   + 2 x12 * x29 + 6 x12 * x30 - 32 x12 * x31 - 72 x12 * x32 + 96 x12 * x34
   - 12 x12 * x36 + 66 x12 * x37 + 2 x12 * x39 - 22 x13 ^2 - 80 x13 * x14
   - 78 x13 * x20 - 74 x13 * x21 - 16 x13 * x22 + 44 x13 * x23
   + 4 x13 * x24 + 72 x13 * x25 + 54 x13 * x27 + 88 x13 * x28
   - 80 x13 * x29 + 24 x13 * x30 - 74 x13 * x31 + 36 x13 * x32
   + 38 x13 * x33 - 54 x13 * x34 + 86 x13 * x35 - 24 x13 * x36
   + 44 x13 * x37 + 10 x14 ^2 - 28 x14 * x15 - 74 x14 * x17 - 26 x14 * x18
   + 38 x14 * x19 + 62 x14 * x20 + 6 x14 * x21 + 56 x14 * x23
   - 82 x14 * x24 - 82 x14 * x25 + 32 x14 * x26 + 44 x14 * x28
   + 66 x14 * x29 + 70 x14 * x31 + 82 x14 * x32 - 44 x14 * x33
   - 18 x14 * x34 + 58 x14 * x35 + 10 x14 * x36 + 20 x14 * x37
   - 82 x14 * x38 + 34 x14 * x39 - 34 x15 ^2 + 26 x15 * x16 + 80 x15 * x17
   + 44 x15 * x18 + 88 x15 * x19 + 78 x15 * x20 + 66 x15 * x21
   + 20 x15 * x22 - 38 x15 * x23 + 52 x15 * x24 + 86 x15 * x26
   - 20 x15 * x27 - 62 x15 * x28 + 72 x15 * x29 + 88 x15 * x30
   - 82 x15 * x31 + 64 x15 * x32 + 86 x15 * x33 + 30 x15 * x34
   - 82 x15 * x35 + 26 x15 * x36 - 6 x15 * x38 + 78 x15 * x39 - 29 x16 ^2
   - 16 x16 * x17 - 12 x16 * x18 + 78 x16 * x19 - 64 x16 * x20
   - 42 x16 * x21 - 36 x16 * x22 + 80 x16 * x23 + 2 x16 * x24 + 2 x16 * x25
   + 28 x16 * x26 + 28 x16 * x27 - 8 x16 * x28 + 20 x16 * x30
   - 20 x16 * x32 - 16 x16 * x33 - 50 x16 * x34 - 42 x16 * x35
   + 56 x16 * x37 - 28 x16 * x38 + 98 x16 * x39 - 49 x17 ^2 - 68 x17 * x18
   - 82 x17 * x19 - 58 x17 * x20 + 44 x17 * x21 - 70 x17 * x22
   - 50 x17 * x23 + 10 x17 * x24 - 48 x17 * x25 + 34 x17 * x26
   - 30 x17 * x27 - 80 x17 * x28 - 40 x17 * x29 + 16 x17 * x30
   + 26 x17 * x31 - 74 x17 * x32 + 72 x17 * x34 - 78 x17 * x35
   - 4 x17 * x36 + 70 x17 * x38 - 52 x17 * x39 + 98 x18 * x19
   - 12 x18 * x20 - 16 x18 * x21 - 24 x18 * x22 - 52 x18 * x23
   - 76 x18 * x24 - 76 x18 * x26 + 6 x18 * x27 + 84 x18 * x28
   + 18 x18 * x29 + 46 x18 * x30 + 2 x18 * x31 + 98 x18 * x32
   - 34 x18 * x33 + 2 x18 * x37 + 64 x18 * x38 - 98 x18 * x39 - 6 x19 ^2
   - 50 x19 * x20 + 68 x19 * x21 - 88 x19 * x23 + 80 x19 * x24
   + 52 x19 * x25 - 28 x19 * x26 - 64 x19 * x27 - 8 x19 * x28
   + 18 x19 * x30 + 22 x19 * x31 - 54 x19 * x32 - 60 x19 * x33
   - 2 x19 * x34 - 14 x19 * x35 - 4 x19 * x36 - 70 x19 * x37 - 86 x19 * x38
   + 6 x19 * x39 + 38 x20 ^2 - 80 x20 * x22 + 54 x20 * x23 - 6 x20 * x24
   + 32 x20 * x25 - 92 x20 * x28 + 2 x20 * x29 + 4 x20 * x30 + 72 x20 * x31
   + 72 x20 * x32 + 64 x20 * x33 + 84 x20 * x34 - 68 x20 * x36
   - 32 x20 * x37 + 26 x20 * x38 + 20 x20 * x39 + 18 x21 ^2 + 58 x21 * x22
   + 82 x21 * x23 - 60 x21 * x24 + 2 x21 * x25 + 84 x21 * x27
   + 40 x21 * x28 - 94 x21 * x29 + 18 x21 * x31 + 42 x21 * x32
   + 72 x21 * x33 - 2 x21 * x34 + 68 x21 * x35 + 92 x21 * x37
   - 40 x21 * x38 + 6 x21 * x39 - 2 x22 ^2 - 98 x22 * x23 - 92 x22 * x24
   + 40 x22 * x26 + 42 x22 * x27 - 90 x22 * x28 - 34 x22 * x29
   + 66 x22 * x31 + 36 x22 * x33 - 54 x22 * x35 - 44 x22 * x37
   + 34 x22 * x38 + 26 x22 * x39 - 14 x23 ^2 + 46 x23 * x24 + 52 x23 * x25
   + 36 x23 * x26 + 2 x23 * x27 - 58 x23 * x28 + 24 x23 * x30
   + 74 x23 * x31 - 98 x23 * x33 - 86 x23 * x34 + 78 x23 * x35
   + 74 x23 * x37 + 2 x23 * x38 + 64 x23 * x39 - 33 x24 ^2 - 22 x24 * x25
   + 22 x24 * x26 + 82 x24 * x28 + 60 x24 * x29 + 12 x24 * x30
   + 82 x24 * x32 + 56 x24 * x33 + 26 x24 * x34 + 32 x24 * x36
   - 24 x24 * x37 - 46 x24 * x38 - 62 x24 * x39 - 78 x25 * x26
   - 12 x25 * x27 + 78 x25 * x28 - 84 x25 * x29 + 36 x25 * x30
   + 50 x25 * x31 + 76 x25 * x32 - 94 x25 * x33 - 16 x25 * x35
   + 62 x25 * x36 + 8 x25 * x37 + 76 x25 * x38 + 44 x25 * x39 - 2 x26 ^2
   + 62 x26 * x28 + 96 x26 * x30 + 2 x26 * x32 - 86 x26 * x34
   - 48 x26 * x35 - 34 x26 * x36 + 62 x26 * x37 + 6 x26 * x38 - 2 x27 ^2
   - 36 x27 * x28 - 42 x27 * x29 + 96 x27 * x30 + 50 x27 * x31
   - 56 x27 * x32 - 84 x27 * x33 - 62 x27 * x34 - 86 x27 * x35
   + 36 x27 * x36 + 14 x27 * x37 + 96 x27 * x38 - 68 x27 * x39 - 39 x28 ^2
   - 68 x28 * x29 + 80 x28 * x30 + 48 x28 * x31 + 30 x28 * x32
   - 30 x28 * x34 - 20 x28 * x35 + 24 x28 * x36 - 2 x28 * x37
   - 18 x29 * x30 + 10 x29 * x31 + 94 x29 * x32 - 50 x29 * x33
   + 68 x29 * x34 + 66 x29 * x35 - 82 x29 * x36 - 54 x29 * x37
   + 30 x29 * x38 + 40 x29 * x39 + 26 x30 ^2 + 44 x30 * x31 + 74 x30 * x32
   - 24 x30 * x33 - 48 x30 * x34 - 30 x30 * x35 - 54 x30 * x36
   + 68 x30 * x37 - 76 x30 * x38 - 44 x30 * x39 + 34 x31 ^2 - 4 x31 * x33
   + 6 x31 * x34 + 56 x31 * x35 - 76 x31 * x36 - 28 x31 * x37
   - 96 x31 * x39 - 11 x32 ^2 + 20 x32 * x33 - 64 x32 * x35 - 42 x32 * x36
   - 78 x32 * x37 - 4 x32 * x38 - 12 x32 * x39 + 9 x33 ^2 + 18 x33 * x34
   + 88 x33 * x35 + 48 x33 * x37 - 16 x33 * x38 - 8 x33 * x39 + 2 x34 ^2
   + 32 x34 * x35 - 42 x34 * x36 - 34 x34 * x37 - 78 x34 * x38
   + 64 x34 * x39 - 34 x35 ^2 - 28 x35 * x37 + 32 x35 * x39 + 40 x36 ^2
   - 38 x36 * x37 - 58 x36 * x38 + 6 x36 * x39 + 41 x37 ^2 + 20 x37 * x38
   - 34 x37 * x39 + 15 x38 ^2 + 74 x38 * x39 - 26 x39 ^2 ] / 2 
Subject To
Bounds
 x0 <= 1
 x1 <= 1
 x2 <= 1
 x3 <= 1
 x4 <= 1
 x5 <= 1
 x6 <= 1
 x7 <= 1
 x8 <= 1
 x9 <= 1
 x10 <= 1
 x11 <= 1
 x12 <= 1
 x13 <= 1
 x14 <= 1
 x15 <= 1
 x16 <= 1
 x17 <= 1
 x18 <= 1
 x19 <= 1
 x20 <= 1
 x21 <= 1
 x22 <= 1
 x23 <= 1
 x24 <= 1
 x25 <= 1
 x26 <= 1
 x27 <= 1
 x28 <= 1
 x29 <= 1
 x30 <= 1
 x31 <= 1
 x32 <= 1
 x33 <= 1
 x34 <= 1
 x35 <= 1
 x36 <= 1
 x37 <= 1
 x38 <= 1
 x39 <= 1
End
